
Gurobi 13.0.2 (win64) logging started Fri Jul 24 09:59:04 2026

Set parameter LogFile to value "E:\codes\ExactEBRP\results\gf_c0_mechanism_transfer_c5_round30\runs\stage2__high_imbalance_seed6202__c5_candidate__300s\external\native_logs\L3.0_lp.gurobi.log"
Gurobi Optimizer version 13.0.2 build v13.0.2rc1 (win64 - Windows 10.0 (19045.2))

CPU model: 12th Gen Intel(R) Core(TM) i7-12700KF, instruction set [SSE2|AVX|AVX2]
Thread count: 12 physical cores, 20 logical processors, using up to 1 threads

Non-default parameters:
TimeLimit  2.4284999299999998e+02
MIPGap  0
MIPGapAbs  0
LogToConsole  0
Threads  1

Optimize a model with 93009 rows, 18187 columns and 665803 nonzeros (Min)
Model fingerprint: 0x86d3549c
Model has 51 linear objective coefficients
Coefficient statistics:
  Matrix range     [1e-02, 2e+04]
  Objective range  [1e-02, 1e+00]
  Bounds range     [7e-01, 5e+04]
  RHS range        [7e-01, 1e+05]

Presolve removed 15487 rows and 224 columns
Presolve time: 0.32s
Presolved: 17920 rows, 95453 columns, 447706 nonzeros

Iteration    Objective       Primal Inf.    Dual Inf.      Time
       0      handle free variables                          0s

Extra simplex iterations after uncrush: 15

Extra simplex iterations from dual to original model: 126
    6860    7.5557176e+00   0.000000e+00   0.000000e+00      2s

Solved in 6860 iterations and 1.63 seconds (5.12 work units)
Optimal objective  7.555717611e+00

User-callback calls 7029, time in user-callback 0.00 sec
